100 500 200 500 10 100
48 357
61 361
60 451
61 232
72 430
73 249
32 446
65 488
83 349
17 217
56 397
15 329
94 356
68 369
95 356
27 309
12 272
18 371
11 469
18 349
19 487
16 446
60 264
98 325
54 323
44 379
29 309
52 209
53 364
15 249
47 252
97 430
27 475
28 296
92 204
54 240
70 291
58 321
86 317
62 217
22 486
56 410
61 250
70 209
33 496
15 382
24 365
35 269
70 413
22 481
79 258
24 305
80 456
31 403
81 269
58 462
95 464
51 299
27 239
23 377
12 315
36 230
46 319
20 216
14 414
84 346
15 467
85 219
71 275
13 393
15 239
61 298
81 424
19 216
77 454
64 446
67 400
22 497
50 473
35 500
72 459
54 307
17 246
61 296
61 497
99 364
41 292
30 488
25 358
35 376
24 294
87 328
78 495
46 212
85 286
52 302
44 307
86 419
88 484
99 423
